91
3
Si 0.00000 0.00000 0.00000
Si 0.00000 0.00000 2.00000
Si 0.00000 0.00000 4.00000
Si 0.00000 0.00000 6.00000
Si 0.00000 2.00000 0.00000
Si 0.00000 2.00000 2.00000
Si 0.00000 2.00000 4.00000
Si 0.00000 2.00000 6.00000
Si 0.00000 4.00000 0.00000
Si 0.00000 4.00000 2.00000
Si 0.00000 4.00000 4.00000
Si 0.00000 4.00000 6.00000
Si 0.00000 6.00000 0.00000
Si 0.00000 6.00000 2.00000
Si 0.00000 6.00000 4.00000
Si 0.00000 6.00000 6.00000
Si 2.00000 0.00000 0.00000
Si 2.00000 0.00000 2.00000
Si 2.00000 0.00000 4.00000
Si 2.00000 0.00000 6.00000
Si 2.00000 2.00000 0.00000
Si 2.00000 2.00000 2.00000
Si 2.00000 2.00000 4.00000
Si 2.00000 2.00000 6.00000
Si 2.00000 4.00000 0.00000
Si 2.00000 4.00000 2.00000
Si 2.00000 4.00000 4.00000
Si 2.00000 4.00000 6.00000
Si 2.00000 6.00000 0.00000
Si 2.00000 6.00000 2.00000
Si 2.00000 6.00000 4.00000
Si 2.00000 6.00000 6.00000
Si 4.00000 0.00000 0.00000
Si 4.00000 0.00000 2.00000
Si 4.00000 0.00000 4.00000
Si 4.00000 0.00000 6.00000
Si 4.00000 2.00000 0.00000
Si 4.00000 2.00000 2.00000
Si 4.00000 2.00000 4.00000
Si 4.00000 2.00000 6.00000
Si 4.00000 4.00000 0.00000
Si 4.00000 4.00000 2.00000
Si 4.00000 4.00000 4.00000
Si 4.00000 4.00000 6.00000
Si 4.00000 6.00000 0.00000
Si 4.00000 6.00000 2.00000
Si 4.00000 6.00000 4.00000
Si 4.00000 6.00000 6.00000
Si 6.00000 0.00000 0.00000
Si 6.00000 0.00000 2.00000
Si 6.00000 0.00000 4.00000
Si 6.00000 0.00000 6.00000
Si 6.00000 2.00000 0.00000
Si 6.00000 2.00000 2.00000
Si 6.00000 2.00000 4.00000
Si 6.00000 2.00000 6.00000
Si 6.00000 4.00000 0.00000
Si 6.00000 4.00000 2.00000
Si 6.00000 4.00000 4.00000
Si 6.00000 4.00000 6.00000
Si 6.00000 6.00000 0.00000
Si 6.00000 6.00000 2.00000
Si 6.00000 6.00000 4.00000
Si 6.00000 6.00000 6.00000
Si 1.00000 1.00000 1.00000
Si 1.00000 1.00000 3.00000
Si 1.00000 1.00000 5.00000
Si 1.00000 3.00000 1.00000
Si 1.00000 3.00000 3.00000
Si 1.00000 3.00000 5.00000
Si 1.00000 5.00000 1.00000
Si 1.00000 5.00000 3.00000
Si 1.00000 5.00000 5.00000
Si 3.00000 1.00000 1.00000
Si 3.00000 1.00000 3.00000
Si 3.00000 1.00000 5.00000
Si 3.00000 3.00000 1.00000
Si 3.00000 3.00000 3.00000
Si 3.00000 3.00000 5.00000
Si 3.00000 5.00000 1.00000
Si 3.00000 5.00000 3.00000
Si 3.00000 5.00000 5.00000
Si 5.00000 1.00000 1.00000
Si 5.00000 1.00000 3.00000
Si 5.00000 1.00000 5.00000
Si 5.00000 3.00000 1.00000
Si 5.00000 3.00000 3.00000
Si 5.00000 3.00000 5.00000
Si 5.00000 5.00000 1.00000
Si 5.00000 5.00000 3.00000
Si 5.00000 5.00000 5.00000
