280
diamond
Si 0.00000 0.00000 0.00000
Si 0.00000 0.00000 5.43000
Si 0.00000 0.00000 10.86000
Si 0.00000 0.00000 16.29000
Si 0.00000 5.43000 0.00000
Si 0.00000 5.43000 5.43000
Si 0.00000 5.43000 10.86000
Si 0.00000 5.43000 16.29000
Si 0.00000 10.86000 0.00000
Si 0.00000 10.86000 5.43000
Si 0.00000 10.86000 10.86000
Si 0.00000 10.86000 16.29000
Si 0.00000 16.29000 0.00000
Si 0.00000 16.29000 5.43000
Si 0.00000 16.29000 10.86000
Si 0.00000 16.29000 16.29000
Si 5.43000 0.00000 0.00000
Si 5.43000 0.00000 5.43000
Si 5.43000 0.00000 10.86000
Si 5.43000 0.00000 16.29000
Si 5.43000 5.43000 0.00000
Si 5.43000 5.43000 5.43000
Si 5.43000 5.43000 10.86000
Si 5.43000 5.43000 16.29000
Si 5.43000 10.86000 0.00000
Si 5.43000 10.86000 5.43000
Si 5.43000 10.86000 10.86000
Si 5.43000 10.86000 16.29000
Si 5.43000 16.29000 0.00000
Si 5.43000 16.29000 5.43000
Si 5.43000 16.29000 10.86000
Si 5.43000 16.29000 16.29000
Si 10.86000 0.00000 0.00000
Si 10.86000 0.00000 5.43000
Si 10.86000 0.00000 10.86000
Si 10.86000 0.00000 16.29000
Si 10.86000 5.43000 0.00000
Si 10.86000 5.43000 5.43000
Si 10.86000 5.43000 10.86000
Si 10.86000 5.43000 16.29000
Si 10.86000 10.86000 0.00000
Si 10.86000 10.86000 5.43000
Si 10.86000 10.86000 10.86000
Si 10.86000 10.86000 16.29000
Si 10.86000 16.29000 0.00000
Si 10.86000 16.29000 5.43000
Si 10.86000 16.29000 10.86000
Si 10.86000 16.29000 16.29000
Si 16.29000 0.00000 0.00000
Si 16.29000 0.00000 5.43000
Si 16.29000 0.00000 10.86000
Si 16.29000 0.00000 16.29000
Si 16.29000 5.43000 0.00000
Si 16.29000 5.43000 5.43000
Si 16.29000 5.43000 10.86000
Si 16.29000 5.43000 16.29000
Si 16.29000 10.86000 0.00000
Si 16.29000 10.86000 5.43000
Si 16.29000 10.86000 10.86000
Si 16.29000 10.86000 16.29000
Si 16.29000 16.29000 0.00000
Si 16.29000 16.29000 5.43000
Si 16.29000 16.29000 10.86000
Si 16.29000 16.29000 16.29000
Si 2.71500 2.71500 0.00000
Si 2.71500 2.71500 5.43000
Si 2.71500 2.71500 10.86000
Si 2.71500 2.71500 16.29000
Si 2.71500 8.14500 0.00000
Si 2.71500 8.14500 5.43000
Si 2.71500 8.14500 10.86000
Si 2.71500 8.14500 16.29000
Si 2.71500 13.57500 0.00000
Si 2.71500 13.57500 5.43000
Si 2.71500 13.57500 10.86000
Si 2.71500 13.57500 16.29000
Si 8.14500 2.71500 0.00000
Si 8.14500 2.71500 5.43000
Si 8.14500 2.71500 10.86000
Si 8.14500 2.71500 16.29000
Si 8.14500 8.14500 0.00000
Si 8.14500 8.14500 5.43000
Si 8.14500 8.14500 10.86000
Si 8.14500 8.14500 16.29000
Si 8.14500 13.57500 0.00000
Si 8.14500 13.57500 5.43000
Si 8.14500 13.57500 10.86000
Si 8.14500 13.57500 16.29000
Si 13.57500 2.71500 0.00000
Si 13.57500 2.71500 5.43000
Si 13.57500 2.71500 10.86000
Si 13.57500 2.71500 16.29000
Si 13.57500 8.14500 0.00000
Si 13.57500 8.14500 5.43000
Si 13.57500 8.14500 10.86000
Si 13.57500 8.14500 16.29000
Si 13.57500 13.57500 0.00000
Si 13.57500 13.57500 5.43000
Si 13.57500 13.57500 10.86000
Si 13.57500 13.57500 16.29000
Si 2.71500 0.00000 2.71500
Si 2.71500 0.00000 8.14500
Si 2.71500 0.00000 13.57500
Si 2.71500 5.43000 2.71500
Si 2.71500 5.43000 8.14500
Si 2.71500 5.43000 13.57500
Si 2.71500 10.86000 2.71500
Si 2.71500 10.86000 8.14500
Si 2.71500 10.86000 13.57500
Si 2.71500 16.29000 2.71500
Si 2.71500 16.29000 8.14500
Si 2.71500 16.29000 13.57500
Si 8.14500 0.00000 2.71500
Si 8.14500 0.00000 8.14500
Si 8.14500 0.00000 13.57500
Si 8.14500 5.43000 2.71500
Si 8.14500 5.43000 8.14500
Si 8.14500 5.43000 13.57500
Si 8.14500 10.86000 2.71500
Si 8.14500 10.86000 8.14500
Si 8.14500 10.86000 13.57500
Si 8.14500 16.29000 2.71500
Si 8.14500 16.29000 8.14500
Si 8.14500 16.29000 13.57500
Si 13.57500 0.00000 2.71500
Si 13.57500 0.00000 8.14500
Si 13.57500 0.00000 13.57500
Si 13.57500 5.43000 2.71500
Si 13.57500 5.43000 8.14500
Si 13.57500 5.43000 13.57500
Si 13.57500 10.86000 2.71500
Si 13.57500 10.86000 8.14500
Si 13.57500 10.86000 13.57500
Si 13.57500 16.29000 2.71500
Si 13.57500 16.29000 8.14500
Si 13.57500 16.29000 13.57500
Si 0.00000 2.71500 2.71500
Si 0.00000 2.71500 8.14500
Si 0.00000 2.71500 13.57500
Si 0.00000 8.14500 2.71500
Si 0.00000 8.14500 8.14500
Si 0.00000 8.14500 13.57500
Si 0.00000 13.57500 2.71500
Si 0.00000 13.57500 8.14500
Si 0.00000 13.57500 13.57500
Si 5.43000 2.71500 2.71500
Si 5.43000 2.71500 8.14500
Si 5.43000 2.71500 13.57500
Si 5.43000 8.14500 2.71500
Si 5.43000 8.14500 8.14500
Si 5.43000 8.14500 13.57500
Si 5.43000 13.57500 2.71500
Si 5.43000 13.57500 8.14500
Si 5.43000 13.57500 13.57500
Si 10.86000 2.71500 2.71500
Si 10.86000 2.71500 8.14500
Si 10.86000 2.71500 13.57500
Si 10.86000 8.14500 2.71500
Si 10.86000 8.14500 8.14500
Si 10.86000 8.14500 13.57500
Si 10.86000 13.57500 2.71500
Si 10.86000 13.57500 8.14500
Si 10.86000 13.57500 13.57500
Si 16.29000 2.71500 2.71500
Si 16.29000 2.71500 8.14500
Si 16.29000 2.71500 13.57500
Si 16.29000 8.14500 2.71500
Si 16.29000 8.14500 8.14500
Si 16.29000 8.14500 13.57500
Si 16.29000 13.57500 2.71500
Si 16.29000 13.57500 8.14500
Si 16.29000 13.57500 13.57500
Si 1.35750 1.35750 1.35750
Si 1.35750 4.07250 4.07250
Si 4.07250 1.35750 4.07250
Si 4.07250 4.07250 1.35750
Si 1.35750 1.35750 6.78750
Si 1.35750 4.07250 9.50250
Si 4.07250 1.35750 9.50250
Si 4.07250 4.07250 6.78750
Si 1.35750 1.35750 12.21750
Si 1.35750 4.07250 14.93250
Si 4.07250 1.35750 14.93250
Si 4.07250 4.07250 12.21750
Si 1.35750 6.78750 1.35750
Si 1.35750 9.50250 4.07250
Si 4.07250 6.78750 4.07250
Si 4.07250 9.50250 1.35750
Si 1.35750 6.78750 6.78750
Si 1.35750 9.50250 9.50250
Si 4.07250 6.78750 9.50250
Si 4.07250 9.50250 6.78750
Si 1.35750 6.78750 12.21750
Si 1.35750 9.50250 14.93250
Si 4.07250 6.78750 14.93250
Si 4.07250 9.50250 12.21750
Si 1.35750 12.21750 1.35750
Si 1.35750 14.93250 4.07250
Si 4.07250 12.21750 4.07250
Si 4.07250 14.93250 1.35750
Si 1.35750 12.21750 6.78750
Si 1.35750 14.93250 9.50250
Si 4.07250 12.21750 9.50250
Si 4.07250 14.93250 6.78750
Si 1.35750 12.21750 12.21750
Si 1.35750 14.93250 14.93250
Si 4.07250 12.21750 14.93250
Si 4.07250 14.93250 12.21750
Si 6.78750 1.35750 1.35750
Si 6.78750 4.07250 4.07250
Si 9.50250 1.35750 4.07250
Si 9.50250 4.07250 1.35750
Si 6.78750 1.35750 6.78750
Si 6.78750 4.07250 9.50250
Si 9.50250 1.35750 9.50250
Si 9.50250 4.07250 6.78750
Si 6.78750 1.35750 12.21750
Si 6.78750 4.07250 14.93250
Si 9.50250 1.35750 14.93250
Si 9.50250 4.07250 12.21750
Si 6.78750 6.78750 1.35750
Si 6.78750 9.50250 4.07250
Si 9.50250 6.78750 4.07250
Si 9.50250 9.50250 1.35750
Si 6.78750 6.78750 6.78750
Si 6.78750 9.50250 9.50250
Si 9.50250 6.78750 9.50250
Si 9.50250 9.50250 6.78750
Si 6.78750 6.78750 12.21750
Si 6.78750 9.50250 14.93250
Si 9.50250 6.78750 14.93250
Si 9.50250 9.50250 12.21750
Si 6.78750 12.21750 1.35750
Si 6.78750 14.93250 4.07250
Si 9.50250 12.21750 4.07250
Si 9.50250 14.93250 1.35750
Si 6.78750 12.21750 6.78750
Si 6.78750 14.93250 9.50250
Si 9.50250 12.21750 9.50250
Si 9.50250 14.93250 6.78750
Si 6.78750 12.21750 12.21750
Si 6.78750 14.93250 14.93250
Si 9.50250 12.21750 14.93250
Si 9.50250 14.93250 12.21750
Si 12.21750 1.35750 1.35750
Si 12.21750 4.07250 4.07250
Si 14.93250 1.35750 4.07250
Si 14.93250 4.07250 1.35750
Si 12.21750 1.35750 6.78750
Si 12.21750 4.07250 9.50250
Si 14.93250 1.35750 9.50250
Si 14.93250 4.07250 6.78750
Si 12.21750 1.35750 12.21750
Si 12.21750 4.07250 14.93250
Si 14.93250 1.35750 14.93250
Si 14.93250 4.07250 12.21750
Si 12.21750 6.78750 1.35750
Si 12.21750 9.50250 4.07250
Si 14.93250 6.78750 4.07250
Si 14.93250 9.50250 1.35750
Si 12.21750 6.78750 6.78750
Si 12.21750 9.50250 9.50250
Si 14.93250 6.78750 9.50250
Si 14.93250 9.50250 6.78750
Si 12.21750 6.78750 12.21750
Si 12.21750 9.50250 14.93250
Si 14.93250 6.78750 14.93250
Si 14.93250 9.50250 12.21750
Si 12.21750 12.21750 1.35750
Si 12.21750 14.93250 4.07250
Si 14.93250 12.21750 4.07250
Si 14.93250 14.93250 1.35750
Si 12.21750 12.21750 6.78750
Si 12.21750 14.93250 9.50250
Si 14.93250 12.21750 9.50250
Si 14.93250 14.93250 6.78750
Si 12.21750 12.21750 12.21750
Si 12.21750 14.93250 14.93250
Si 14.93250 12.21750 14.93250
Si 14.93250 14.93250 12.21750
